NAME : amz2069.98666_97166.tour
COMMENT : Cost = 98666_97166
COMMENT : Found by LKH-AMZ [Keld Helsgaun] Sun May 11 13:40:22 2025
COMMENT : TW viol.: 0 #: 0
TYPE : TOUR
DIMENSION : 137
TOUR_SECTION
98
44
126
11
1
71
29
129
30
42
122
107
95
69
101
114
87
105
121
41
132
5
130
109
102
19
21
124
46
97
2
4
3
47
67
86
26
25
33
20
93
65
111
79
60
113
74
82
13
53
18
70
133
39
23
7
9
135
35
66
131
12
32
64
28
54
117
10
116
52
75
49
24
110
50
99
34
51
106
128
6
38
22
104
94
127
57
108
96
78
59
92
91
134
43
136
14
83
62
112
120
84
118
123
15
37
27
80
89
61
55
45
58
48
31
85
16
8
125
63
100
56
115
40
81
76
73
72
90
17
77
36
119
88
137
103
68
-1
EOF
